language Essence 1.3

letting blksize_delta be
        function(1 --> 10, 2 --> 10, 3 --> 10, 4 --> 10, 5 --> 10, 6 --> 10, 7 --> 10, 8 --> 10, 9 --> 10, 10 --> 10,
                 11 --> 10, 12 --> 10, 13 --> 10, 14 --> 10, 15 --> 10, 16 --> 10, 17 --> 10, 18 --> 10, 19 --> 10,
                 20 --> 10, 21 --> 10, 22 --> 10, 23 --> 10, 24 --> 10, 25 --> 10, 26 --> 10, 27 --> 10, 28 --> 10,
                 29 --> 10)
letting maxcars be
        function(1 --> 10, 2 --> 10, 3 --> 10, 4 --> 10, 5 --> 10, 6 --> 10, 7 --> 10, 8 --> 10, 9 --> 10, 10 --> 10,
                 11 --> 10, 12 --> 10, 13 --> 10, 14 --> 10, 15 --> 10, 16 --> 10, 17 --> 10, 18 --> 10, 19 --> 10,
                 20 --> 10, 21 --> 10, 22 --> 10, 23 --> 10, 24 --> 10, 25 --> 10, 26 --> 10, 27 --> 10, 28 --> 10,
                 29 --> 10)
letting n_cars be 212
letting n_classes be 34
letting n_options be 29
letting quantity be
        function(1 --> 6, 2 --> 6, 3 --> 6, 4 --> 6, 5 --> 6, 6 --> 9, 7 --> 6, 8 --> 6, 9 --> 6, 10 --> 6, 11 --> 6,
                 12 --> 6, 13 --> 10, 14 --> 6, 15 --> 6, 16 --> 6, 17 --> 6, 18 --> 6, 19 --> 6, 20 --> 6, 21 --> 6,
                 22 --> 6, 23 --> 6, 24 --> 6, 25 --> 7, 26 --> 6, 27 --> 6, 28 --> 6, 29 --> 6, 30 --> 6, 31 --> 6,
                 32 --> 6, 33 --> 6, 34 --> 6)
letting usage be
        relation((1, 2), (1, 5), (1, 8), (1, 11), (1, 24), (2, 13), (2, 18), (2, 27), (2, 29), (3, 2), (3, 3), (3, 11),
                 (3, 19), (3, 20), (4, 2), (4, 19), (4, 25), (5, 2), (5, 15), (5, 25), (5, 26), (5, 29), (6, 27),
                 (7, 16), (7, 25), (7, 29), (8, 1), (8, 19), (9, 29), (10, 6), (10, 12), (10, 21), (11, 5), (11, 10),
                 (11, 12), (11, 17), (11, 18), (12, 13), (12, 19), (12, 26), (12, 29), (13, 9), (13, 21), (13, 24),
                 (13, 26), (14, 29), (15, 2), (15, 9), (15, 22), (15, 28), (16, 2), (17, 8), (17, 14), (17, 20),
                 (17, 21), (18, 3), (18, 6), (18, 12), (18, 24), (18, 29), (19, 2), (19, 11), (19, 12), (19, 15),
                 (19, 19), (20, 7), (20, 11), (20, 22), (20, 29), (21, 22), (21, 28), (22, 2), (22, 17), (23, 3),
                 (23, 10), (23, 28), (24, 10), (24, 27), (25, 1), (25, 8), (25, 9), (25, 19), (26, 2), (26, 3),
                 (26, 20), (26, 24), (27, 16), (27, 17), (28, 16), (29, 26), (30, 23), (30, 28), (31, 4), (31, 7),
                 (31, 21), (31, 24), (31, 25), (32, 14), (32, 17), (32, 23), (33, 2), (33, 9), (33, 10), (33, 23),
                 (34, 2), (34, 4), (34, 6), (34, 17))
$ Visualisation for usage
$  1  2
$  1  5
$  1  8
$  1 11
$  1 24
$  2 13
$  2 18
$  2 27
$  2 29
$  3  2
$  3  3
$  3 11
$  3 19
$  3 20
$  4  2
$  4 19
$  4 25
$  5  2
$  5 15
$  5 25
$  5 26
$  5 29
$  6 27
$  7 16
$  7 25
$  7 29
$  8  1
$  8 19
$  9 29
$ 10  6
$ 10 12
$ 10 21
$ 11  5
$ 11 10
$ 11 12
$ 11 17
$ 11 18
$ 12 13
$ 12 19
$ 12 26
$ 12 29
$ 13  9
$ 13 21
$ 13 24
$ 13 26
$ 14 29
$ 15  2
$ 15  9
$ 15 22
$ 15 28
$ 16  2
$ 17  8
$ 17 14
$ 17 20
$ 17 21
$ 18  3
$ 18  6
$ 18 12
$ 18 24
$ 18 29
$ 19  2
$ 19 11
$ 19 12
$ 19 15
$ 19 19
$ 20  7
$ 20 11
$ 20 22
$ 20 29
$ 21 22
$ 21 28
$ 22  2
$ 22 17
$ 23  3
$ 23 10
$ 23 28
$ 24 10
$ 24 27
$ 25  1
$ 25  8
$ 25  9
$ 25 19
$ 26  2
$ 26  3
$ 26 20
$ 26 24
$ 27 16
$ 27 17
$ 28 16
$ 29 26
$ 30 23
$ 30 28
$ 31  4
$ 31  7
$ 31 21
$ 31 24
$ 31 25
$ 32 14
$ 32 17
$ 32 23
$ 33  2
$ 33  9
$ 33 10
$ 33 23
$ 34  2
$ 34  4
$ 34  6
$ 34 17

